p cnf 411 1531
e 299 300 301 302 303 304 305 306 307 308 309 310 311 312 313 314 315 316 317 318 319 320 321 322 323 324 325 326 327 328 329 330 331 332 333 334 335 336 337 338 339 340 341 342 343 344 345 346 347 348 349 350 351 352 353 354 355 356 357 358 359 360 361 362 363 364 365 366 367 368 369 370 371 372 373 374 375 376 377 378 379 380 381 382 383 384 385 386 387 388 389 390 391 392 393 394 395 396 397 398 399 400 401 0
a 402 403 404 0
e 1 2 3 4 5 6 7 8 9 10 11 12 13 14 15 16 17 18 19 20 21 22 23 24 25 26 27 28 29 30 31 32 33 34 35 36 37 38 39 40 41 42 43 44 45 46 47 48 49 50 51 52 53 54 55 56 57 58 59 60 61 62 63 64 65 66 67 68 69 70 71 72 73 74 75 76 77 78 79 80 81 82 83 84 85 86 87 88 89 90 91 92 93 94 95 96 97 98 99 100 101 102 103 104 105 106 107 108 109 110 111 112 113 114 115 116 117 118 119 120 121 122 123 124 125 126 127 128 129 130 131 132 133 134 135 136 137 138 139 140 141 142 143 144 145 146 147 148 149 150 151 152 153 154 155 156 157 158 159 160 161 162 163 164 165 166 167 168 169 170 171 172 173 174 175 176 177 178 179 180 181 182 183 184 185 186 187 188 189 190 191 192 193 194 195 196 197 198 199 200 201 202 203 204 205 206 207 208 209 210 211 212 213 214 215 216 217 218 219 220 221 222 223 224 225 226 227 228 229 230 231 232 233 234 235 236 237 238 239 240 241 242 243 244 245 246 247 248 249 250 251 252 253 254 255 256 257 258 259 260 261 262 263 264 265 266 267 268 269 270 271 272 273 274 275 276 277 278 279 280 281 282 283 284 285 286 287 288 289 290 291 292 293 294 295 296 297 298 405 406 407 408 409 410 411 0
-405 -404 -403 402 0
-406 -404 -403 402 0
-407 -404 -403 402 0
-408 -404 -403 402 0
-404 -403 402 409 0
-410 -404 -403 402 0
-411 -404 -403 402 0
-405 -403 402 404 0
-406 -403 402 404 0
-407 -403 402 404 0
-403 402 404 408 0
-409 -403 402 404 0
-410 -403 402 404 0
-411 -403 402 404 0
-405 -404 -402 403 0
-406 -404 -402 403 0
-404 -402 403 407 0
-408 -404 -402 403 0
-409 -404 -402 403 0
-410 -404 -402 403 0
-411 -404 -402 403 0
-405 -402 403 404 0
-402 403 404 406 0
-407 -402 403 404 0
-408 -402 403 404 0
-409 -402 403 404 0
-410 -402 403 404 0
-411 -402 403 404 0
-404 402 403 405 0
-406 -404 402 403 0
-407 -404 402 403 0
-408 -404 402 403 0
-409 -404 402 403 0
-410 -404 402 403 0
-411 -404 402 403 0
-405 402 403 404 0
-406 402 403 404 0
-407 402 403 404 0
-408 402 403 404 0
-409 402 403 404 0
-410 402 403 404 0
402 403 404 411 0
-405 -403 -402 404 0
-406 -403 -402 404 0
-407 -403 -402 404 0
-408 -403 -402 404 0
-409 -403 -402 404 0
-403 -402 404 410 0
-411 -403 -402 404 0
-300 -130 0
-300 -117 0
-301 -131 0
-301 -118 0
-302 -132 0
-302 -119 0
-303 -133 0
-303 -120 0
-304 -134 0
-304 -121 0
-305 -135 0
-305 -122 0
-306 -136 0
-306 -123 0
-307 -137 0
-307 -124 0
-308 -138 0
-308 -125 0
-309 -139 0
-309 -126 0
-310 -140 0
-310 -127 0
-311 -141 0
-311 -128 0
-313 -156 0
-313 -130 0
-314 -157 0
-314 -131 0
-315 -158 0
-315 -132 0
-316 -159 0
-316 -133 0
-317 -160 0
-317 -134 0
-318 -161 0
-318 -135 0
-319 -162 0
-319 -136 0
-320 -163 0
-320 -137 0
-321 -164 0
-321 -138 0
-322 -165 0
-322 -139 0
-323 -166 0
-323 -140 0
-324 -167 0
-324 -141 0
-326 -182 0
-326 -130 0
-327 -183 0
-327 -131 0
-328 -184 0
-328 -132 0
-329 -185 0
-329 -133 0
-330 -186 0
-330 -134 0
-331 -187 0
-331 -135 0
-332 -188 0
-332 -136 0
-333 -189 0
-333 -137 0
-334 -190 0
-334 -138 0
-335 -191 0
-335 -139 0
-336 -192 0
-336 -140 0
-337 -193 0
-337 -141 0
-339 -208 0
-339 -130 0
-340 -209 0
-340 -131 0
-341 -210 0
-341 -132 0
-342 -211 0
-342 -133 0
-343 -212 0
-343 -134 0
-344 -213 0
-344 -135 0
-345 -214 0
-345 -136 0
-346 -215 0
-346 -137 0
-347 -216 0
-347 -138 0
-348 -217 0
-348 -139 0
-349 -218 0
-349 -140 0
-350 -219 0
-350 -141 0
-352 -234 0
-352 -130 0
-353 -235 0
-353 -131 0
-354 -236 0
-354 -132 0
-355 -237 0
-355 -133 0
-356 -238 0
-356 -134 0
-357 -239 0
-357 -135 0
-358 -240 0
-358 -136 0
-359 -241 0
-359 -137 0
-360 -242 0
-360 -138 0
-361 -243 0
-361 -139 0
-362 -244 0
-362 -140 0
-363 -245 0
-363 -141 0
-365 -260 0
-365 -130 0
-366 -261 0
-366 -131 0
-367 -262 0
-367 -132 0
-368 -263 0
-368 -133 0
-369 -264 0
-369 -134 0
-370 -265 0
-370 -135 0
-371 -266 0
-371 -136 0
-372 -267 0
-372 -137 0
-373 -268 0
-373 -138 0
-374 -269 0
-374 -139 0
-375 -270 0
-375 -140 0
-376 -271 0
-376 -141 0
-378 -286 0
-378 -130 0
-380 -287 0
-380 -131 0
-382 -288 0
-382 -132 0
-384 -289 0
-384 -133 0
-386 -290 0
-386 -134 0
-388 -291 0
-388 -135 0
-390 -292 0
-390 -136 0
-392 -293 0
-392 -137 0
-394 -294 0
-394 -138 0
-396 -295 0
-396 -139 0
-398 -296 0
-398 -140 0
-400 -297 0
-400 -141 0
-299 130 0
-299 117 0
-300 131 0
-300 118 0
-301 132 0
-301 119 0
-302 133 0
-302 120 0
-303 134 0
-303 121 0
-304 135 0
-304 122 0
-305 136 0
-305 123 0
-306 137 0
-306 124 0
-307 138 0
-307 125 0
-308 139 0
-308 126 0
-309 140 0
-309 127 0
-310 141 0
-310 128 0
-311 142 0
-311 129 0
-312 156 0
-312 130 0
-313 157 0
-313 131 0
-314 158 0
-314 132 0
-315 159 0
-315 133 0
-316 160 0
-316 134 0
-317 161 0
-317 135 0
-318 162 0
-318 136 0
-319 163 0
-319 137 0
-320 164 0
-320 138 0
-321 165 0
-321 139 0
-322 166 0
-322 140 0
-323 167 0
-323 141 0
-324 168 0
-324 142 0
-325 182 0
-325 130 0
-326 183 0
-326 131 0
-327 184 0
-327 132 0
-328 185 0
-328 133 0
-329 186 0
-329 134 0
-330 187 0
-330 135 0
-331 188 0
-331 136 0
-332 189 0
-332 137 0
-333 190 0
-333 138 0
-334 191 0
-334 139 0
-335 192 0
-335 140 0
-336 193 0
-336 141 0
-337 194 0
-337 142 0
-338 208 0
-338 130 0
-339 209 0
-339 131 0
-340 210 0
-340 132 0
-341 211 0
-341 133 0
-342 212 0
-342 134 0
-343 213 0
-343 135 0
-344 214 0
-344 136 0
-345 215 0
-345 137 0
-346 216 0
-346 138 0
-347 217 0
-347 139 0
-348 218 0
-348 140 0
-349 219 0
-349 141 0
-350 220 0
-350 142 0
-351 234 0
-351 130 0
-352 235 0
-352 131 0
-353 236 0
-353 132 0
-354 237 0
-354 133 0
-355 238 0
-355 134 0
-356 239 0
-356 135 0
-357 240 0
-357 136 0
-358 241 0
-358 137 0
-359 242 0
-359 138 0
-360 243 0
-360 139 0
-361 244 0
-361 140 0
-362 245 0
-362 141 0
-363 246 0
-363 142 0
-364 260 0
-364 130 0
-365 261 0
-365 131 0
-366 262 0
-366 132 0
-367 263 0
-367 133 0
-368 264 0
-368 134 0
-369 265 0
-369 135 0
-370 266 0
-370 136 0
-371 267 0
-371 137 0
-372 268 0
-372 138 0
-373 269 0
-373 139 0
-374 270 0
-374 140 0
-375 271 0
-375 141 0
-376 272 0
-376 142 0
-377 286 0
-377 130 0
-378 287 0
-378 131 0
-380 288 0
-380 132 0
-382 289 0
-382 133 0
-384 290 0
-384 134 0
-386 291 0
-386 135 0
-388 292 0
-388 136 0
-390 293 0
-390 137 0
-392 294 0
-392 138 0
-394 295 0
-394 139 0
-396 296 0
-396 140 0
-398 297 0
-398 141 0
-400 298 0
-400 142 0
-379 -131 0
-381 -132 0
-383 -133 0
-385 -134 0
-387 -135 0
-389 -136 0
-391 -137 0
-393 -138 0
-395 -139 0
-397 -140 0
-399 -141 0
-401 -142 0
-411 -299 -10 0
-300 -19 -9 0
-301 -28 -18 0
-302 -37 -27 0
-303 -46 -36 0
-304 -55 -45 0
-305 -64 -54 0
-306 -73 -63 0
-307 -82 -72 0
-308 -91 -81 0
-309 -100 -90 0
-310 -109 -99 0
-405 -312 -10 0
-313 -143 -19 0
-314 -144 -28 0
-315 -145 -37 0
-316 -146 -46 0
-317 -147 -55 0
-318 -148 -64 0
-319 -149 -73 0
-320 -150 -82 0
-321 -151 -91 0
-322 -152 -100 0
-323 -153 -109 0
-406 -325 -10 0
-326 -169 -19 0
-327 -170 -28 0
-328 -171 -37 0
-329 -172 -46 0
-330 -173 -55 0
-331 -174 -64 0
-332 -175 -73 0
-333 -176 -82 0
-334 -177 -91 0
-335 -178 -100 0
-336 -179 -109 0
-407 -338 -10 0
-339 -195 -19 0
-340 -196 -28 0
-341 -197 -37 0
-342 -198 -46 0
-343 -199 -55 0
-344 -200 -64 0
-345 -201 -73 0
-346 -202 -82 0
-347 -203 -91 0
-348 -204 -100 0
-349 -205 -109 0
-408 -351 -10 0
-352 -221 -19 0
-353 -222 -28 0
-354 -223 -37 0
-355 -224 -46 0
-356 -225 -55 0
-357 -226 -64 0
-358 -227 -73 0
-359 -228 -82 0
-360 -229 -91 0
-361 -230 -100 0
-362 -231 -109 0
-409 -364 -10 0
-365 -247 -19 0
-366 -248 -28 0
-367 -249 -37 0
-368 -250 -46 0
-369 -251 -55 0
-370 -252 -64 0
-371 -253 -73 0
-372 -254 -82 0
-373 -255 -91 0
-374 -256 -100 0
-375 -257 -109 0
-410 -377 -10 0
-378 -273 -19 0
-380 -274 -28 0
-382 -275 -37 0
-384 -276 -46 0
-386 -277 -55 0
-388 -278 -64 0
-390 -279 -73 0
-392 -280 -82 0
-394 -281 -91 0
-396 -282 -100 0
-398 -283 -109 0
-9 411 0
-18 9 0
-27 18 0
-36 27 0
-45 36 0
-54 45 0
-63 54 0
-72 63 0
-81 72 0
-90 81 0
-99 90 0
-108 99 0
-1 108 0
-411 9 0
-9 18 0
-18 27 0
-27 36 0
-36 45 0
-45 54 0
-54 63 0
-63 72 0
-72 81 0
-81 90 0
-90 99 0
-99 108 0
-108 1 0
-19 10 0
-28 19 0
-37 28 0
-46 37 0
-55 46 0
-64 55 0
-73 64 0
-82 73 0
-91 82 0
-100 91 0
-109 100 0
-2 312 0
-2 405 0
-405 -312 2 0
-3 325 0
-3 406 0
-406 -325 3 0
-4 338 0
-4 407 0
-407 -338 4 0
-5 351 0
-5 408 0
-408 -351 5 0
-6 364 0
-6 409 0
-409 -364 6 0
-7 377 0
-7 410 0
-410 -377 7 0
-8 299 0
-8 411 0
-411 -299 8 0
2 3 4 5 6 7 8 10 0
-11 313 0
-11 143 0
-313 -143 11 0
-12 326 0
-12 169 0
-326 -169 12 0
-13 339 0
-13 195 0
-339 -195 13 0
-14 352 0
-14 221 0
-352 -221 14 0
-15 365 0
-15 247 0
-365 -247 15 0
-16 378 0
-16 273 0
-378 -273 16 0
-17 300 0
-17 9 0
-300 -9 17 0
-10 11 12 13 14 15 16 17 19 0
-20 314 0
-20 144 0
-314 -144 20 0
-21 327 0
-21 170 0
-327 -170 21 0
-22 340 0
-22 196 0
-340 -196 22 0
-23 353 0
-23 222 0
-353 -222 23 0
-24 366 0
-24 248 0
-366 -248 24 0
-25 380 0
-25 274 0
-380 -274 25 0
-26 301 0
-26 18 0
-301 -18 26 0
-19 20 21 22 23 24 25 26 28 0
-29 315 0
-29 145 0
-315 -145 29 0
-30 328 0
-30 171 0
-328 -171 30 0
-31 341 0
-31 197 0
-341 -197 31 0
-32 354 0
-32 223 0
-354 -223 32 0
-33 367 0
-33 249 0
-367 -249 33 0
-34 382 0
-34 275 0
-382 -275 34 0
-35 302 0
-35 27 0
-302 -27 35 0
-28 29 30 31 32 33 34 35 37 0
-38 316 0
-38 146 0
-316 -146 38 0
-39 329 0
-39 172 0
-329 -172 39 0
-40 342 0
-40 198 0
-342 -198 40 0
-41 355 0
-41 224 0
-355 -224 41 0
-42 368 0
-42 250 0
-368 -250 42 0
-43 384 0
-43 276 0
-384 -276 43 0
-44 303 0
-44 36 0
-303 -36 44 0
-37 38 39 40 41 42 43 44 46 0
-47 317 0
-47 147 0
-317 -147 47 0
-48 330 0
-48 173 0
-330 -173 48 0
-49 343 0
-49 199 0
-343 -199 49 0
-50 356 0
-50 225 0
-356 -225 50 0
-51 369 0
-51 251 0
-369 -251 51 0
-52 386 0
-52 277 0
-386 -277 52 0
-53 304 0
-53 45 0
-304 -45 53 0
-46 47 48 49 50 51 52 53 55 0
-56 318 0
-56 148 0
-318 -148 56 0
-57 331 0
-57 174 0
-331 -174 57 0
-58 344 0
-58 200 0
-344 -200 58 0
-59 357 0
-59 226 0
-357 -226 59 0
-60 370 0
-60 252 0
-370 -252 60 0
-61 388 0
-61 278 0
-388 -278 61 0
-62 305 0
-62 54 0
-305 -54 62 0
-55 56 57 58 59 60 61 62 64 0
-65 319 0
-65 149 0
-319 -149 65 0
-66 332 0
-66 175 0
-332 -175 66 0
-67 345 0
-67 201 0
-345 -201 67 0
-68 358 0
-68 227 0
-358 -227 68 0
-69 371 0
-69 253 0
-371 -253 69 0
-70 390 0
-70 279 0
-390 -279 70 0
-71 306 0
-71 63 0
-306 -63 71 0
-64 65 66 67 68 69 70 71 73 0
-74 320 0
-74 150 0
-320 -150 74 0
-75 333 0
-75 176 0
-333 -176 75 0
-76 346 0
-76 202 0
-346 -202 76 0
-77 359 0
-77 228 0
-359 -228 77 0
-78 372 0
-78 254 0
-372 -254 78 0
-79 392 0
-79 280 0
-392 -280 79 0
-80 307 0
-80 72 0
-307 -72 80 0
-73 74 75 76 77 78 79 80 82 0
-83 321 0
-83 151 0
-321 -151 83 0
-84 334 0
-84 177 0
-334 -177 84 0
-85 347 0
-85 203 0
-347 -203 85 0
-86 360 0
-86 229 0
-360 -229 86 0
-87 373 0
-87 255 0
-373 -255 87 0
-88 394 0
-88 281 0
-394 -281 88 0
-89 308 0
-89 81 0
-308 -81 89 0
-82 83 84 85 86 87 88 89 91 0
-92 322 0
-92 152 0
-322 -152 92 0
-93 335 0
-93 178 0
-335 -178 93 0
-94 348 0
-94 204 0
-348 -204 94 0
-95 361 0
-95 230 0
-361 -230 95 0
-96 374 0
-96 256 0
-374 -256 96 0
-97 396 0
-97 282 0
-396 -282 97 0
-98 309 0
-98 90 0
-309 -90 98 0
-91 92 93 94 95 96 97 98 100 0
-101 323 0
-101 153 0
-323 -153 101 0
-102 336 0
-102 179 0
-336 -179 102 0
-103 349 0
-103 205 0
-349 -205 103 0
-104 362 0
-104 231 0
-362 -231 104 0
-105 375 0
-105 257 0
-375 -257 105 0
-106 398 0
-106 283 0
-398 -283 106 0
-107 310 0
-107 99 0
-310 -99 107 0
-100 101 102 103 104 105 106 107 109 0
-110 324 0
-110 154 0
-324 -154 110 0
-111 337 0
-111 180 0
-337 -180 111 0
-112 350 0
-112 206 0
-350 -206 112 0
-113 363 0
-113 232 0
-363 -232 113 0
-114 376 0
-114 258 0
-376 -258 114 0
-115 400 0
-115 284 0
-400 -284 115 0
-116 311 0
-116 108 0
-311 -108 116 0
-109 110 111 112 113 114 115 116 0
-117 299 0
-118 117 300 0
-119 118 301 0
-120 119 302 0
-121 120 303 0
-122 121 304 0
-123 122 305 0
-124 123 306 0
-125 124 307 0
-126 125 308 0
-127 126 309 0
-128 127 310 0
-129 128 311 0
-117 118 0
-118 119 0
-119 120 0
-120 121 0
-121 122 0
-122 123 0
-123 124 0
-124 125 0
-125 126 0
-126 127 0
-127 128 0
-128 129 0
-130 299 312 325 338 351 364 377 0
-131 130 300 313 326 339 352 365 378 0
-132 131 301 314 327 340 353 366 380 0
-133 132 302 315 328 341 354 367 382 0
-134 133 303 316 329 342 355 368 384 0
-135 134 304 317 330 343 356 369 386 0
-136 135 305 318 331 344 357 370 388 0
-137 136 306 319 332 345 358 371 390 0
-138 137 307 320 333 346 359 372 392 0
-139 138 308 321 334 347 360 373 394 0
-140 139 309 322 335 348 361 374 396 0
-141 140 310 323 336 349 362 375 398 0
-142 141 311 324 337 350 363 376 400 0
-130 131 379 0
-131 132 381 0
-132 133 383 0
-133 134 385 0
-134 135 387 0
-135 136 389 0
-136 137 391 0
-137 138 393 0
-138 139 395 0
-139 140 397 0
-140 141 399 0
-141 142 401 0
-143 405 0
-144 143 0
-145 144 0
-146 145 0
-147 146 0
-148 147 0
-149 148 0
-150 149 0
-151 150 0
-152 151 0
-153 152 0
-154 153 0
-155 154 0
-405 143 0
-143 144 0
-144 145 0
-145 146 0
-146 147 0
-147 148 0
-148 149 0
-149 150 0
-150 151 0
-151 152 0
-152 153 0
-153 154 0
-154 155 0
-156 312 0
-157 156 313 0
-158 157 314 0
-159 158 315 0
-160 159 316 0
-161 160 317 0
-162 161 318 0
-163 162 319 0
-164 163 320 0
-165 164 321 0
-166 165 322 0
-167 166 323 0
-168 167 324 0
-156 157 0
-157 158 0
-158 159 0
-159 160 0
-160 161 0
-161 162 0
-162 163 0
-163 164 0
-164 165 0
-165 166 0
-166 167 0
-167 168 0
-169 406 0
-170 169 0
-171 170 0
-172 171 0
-173 172 0
-174 173 0
-175 174 0
-176 175 0
-177 176 0
-178 177 0
-179 178 0
-180 179 0
-181 180 0
-406 169 0
-169 170 0
-170 171 0
-171 172 0
-172 173 0
-173 174 0
-174 175 0
-175 176 0
-176 177 0
-177 178 0
-178 179 0
-179 180 0
-180 181 0
-182 325 0
-183 182 326 0
-184 183 327 0
-185 184 328 0
-186 185 329 0
-187 186 330 0
-188 187 331 0
-189 188 332 0
-190 189 333 0
-191 190 334 0
-192 191 335 0
-193 192 336 0
-194 193 337 0
-182 183 0
-183 184 0
-184 185 0
-185 186 0
-186 187 0
-187 188 0
-188 189 0
-189 190 0
-190 191 0
-191 192 0
-192 193 0
-193 194 0
-195 407 0
-196 195 0
-197 196 0
-198 197 0
-199 198 0
-200 199 0
-201 200 0
-202 201 0
-203 202 0
-204 203 0
-205 204 0
-206 205 0
-207 206 0
-407 195 0
-195 196 0
-196 197 0
-197 198 0
-198 199 0
-199 200 0
-200 201 0
-201 202 0
-202 203 0
-203 204 0
-204 205 0
-205 206 0
-206 207 0
-208 338 0
-209 208 339 0
-210 209 340 0
-211 210 341 0
-212 211 342 0
-213 212 343 0
-214 213 344 0
-215 214 345 0
-216 215 346 0
-217 216 347 0
-218 217 348 0
-219 218 349 0
-220 219 350 0
-208 209 0
-209 210 0
-210 211 0
-211 212 0
-212 213 0
-213 214 0
-214 215 0
-215 216 0
-216 217 0
-217 218 0
-218 219 0
-219 220 0
-221 408 0
-222 221 0
-223 222 0
-224 223 0
-225 224 0
-226 225 0
-227 226 0
-228 227 0
-229 228 0
-230 229 0
-231 230 0
-232 231 0
-233 232 0
-408 221 0
-221 222 0
-222 223 0
-223 224 0
-224 225 0
-225 226 0
-226 227 0
-227 228 0
-228 229 0
-229 230 0
-230 231 0
-231 232 0
-232 233 0
-234 351 0
-235 234 352 0
-236 235 353 0
-237 236 354 0
-238 237 355 0
-239 238 356 0
-240 239 357 0
-241 240 358 0
-242 241 359 0
-243 242 360 0
-244 243 361 0
-245 244 362 0
-246 245 363 0
-234 235 0
-235 236 0
-236 237 0
-237 238 0
-238 239 0
-239 240 0
-240 241 0
-241 242 0
-242 243 0
-243 244 0
-244 245 0
-245 246 0
-247 409 0
-248 247 0
-249 248 0
-250 249 0
-251 250 0
-252 251 0
-253 252 0
-254 253 0
-255 254 0
-256 255 0
-257 256 0
-258 257 0
-259 258 0
-409 247 0
-247 248 0
-248 249 0
-249 250 0
-250 251 0
-251 252 0
-252 253 0
-253 254 0
-254 255 0
-255 256 0
-256 257 0
-257 258 0
-258 259 0
-260 364 0
-261 260 365 0
-262 261 366 0
-263 262 367 0
-264 263 368 0
-265 264 369 0
-266 265 370 0
-267 266 371 0
-268 267 372 0
-269 268 373 0
-270 269 374 0
-271 270 375 0
-272 271 376 0
-260 261 0
-261 262 0
-262 263 0
-263 264 0
-264 265 0
-265 266 0
-266 267 0
-267 268 0
-268 269 0
-269 270 0
-270 271 0
-271 272 0
-273 410 0
-274 273 0
-275 274 0
-276 275 0
-277 276 0
-278 277 0
-279 278 0
-280 279 0
-281 280 0
-282 281 0
-283 282 0
-284 283 0
-285 284 0
-410 273 0
-273 274 0
-274 275 0
-275 276 0
-276 277 0
-277 278 0
-278 279 0
-279 280 0
-280 281 0
-281 282 0
-282 283 0
-283 284 0
-284 285 0
-286 377 0
-287 286 378 0
-288 287 380 0
-289 288 382 0
-290 289 384 0
-291 290 386 0
-292 291 388 0
-293 292 390 0
-294 293 392 0
-295 294 394 0
-296 295 396 0
-297 296 398 0
-298 297 400 0
-286 287 0
-287 288 0
-288 289 0
-289 290 0
-290 291 0
-291 292 0
-292 293 0
-293 294 0
-294 295 0
-295 296 0
-296 297 0
-297 298 0
-312 -299 0
-313 -300 0
-314 -301 0
-315 -302 0
-316 -303 0
-317 -304 0
-318 -305 0
-319 -306 0
-320 -307 0
-321 -308 0
-322 -309 0
-323 -310 0
-324 -311 0
-325 -299 0
-326 -300 0
-327 -301 0
-328 -302 0
-329 -303 0
-330 -304 0
-331 -305 0
-332 -306 0
-333 -307 0
-334 -308 0
-335 -309 0
-336 -310 0
-337 -311 0
-338 -299 0
-339 -300 0
-340 -301 0
-341 -302 0
-342 -303 0
-343 -304 0
-344 -305 0
-345 -306 0
-346 -307 0
-347 -308 0
-348 -309 0
-349 -310 0
-350 -311 0
-351 -299 0
-352 -300 0
-353 -301 0
-354 -302 0
-355 -303 0
-356 -304 0
-357 -305 0
-358 -306 0
-359 -307 0
-360 -308 0
-361 -309 0
-362 -310 0
-363 -311 0
-364 -299 0
-365 -300 0
-366 -301 0
-367 -302 0
-368 -303 0
-369 -304 0
-370 -305 0
-371 -306 0
-372 -307 0
-373 -308 0
-374 -309 0
-375 -310 0
-376 -311 0
-377 -299 0
-378 -300 0
-380 -301 0
-382 -302 0
-384 -303 0
-386 -304 0
-388 -305 0
-390 -306 0
-392 -307 0
-394 -308 0
-396 -309 0
-398 -310 0
-400 -311 0
-379 -300 0
-381 -301 0
-383 -302 0
-385 -303 0
-387 -304 0
-389 -305 0
-391 -306 0
-393 -307 0
-395 -308 0
-397 -309 0
-399 -310 0
-401 -311 0
-325 -312 0
-326 -313 0
-327 -314 0
-328 -315 0
-329 -316 0
-330 -317 0
-331 -318 0
-332 -319 0
-333 -320 0
-334 -321 0
-335 -322 0
-336 -323 0
-337 -324 0
-338 -312 0
-339 -313 0
-340 -314 0
-341 -315 0
-342 -316 0
-343 -317 0
-344 -318 0
-345 -319 0
-346 -320 0
-347 -321 0
-348 -322 0
-349 -323 0
-350 -324 0
-351 -312 0
-352 -313 0
-353 -314 0
-354 -315 0
-355 -316 0
-356 -317 0
-357 -318 0
-358 -319 0
-359 -320 0
-360 -321 0
-361 -322 0
-362 -323 0
-363 -324 0
-364 -312 0
-365 -313 0
-366 -314 0
-367 -315 0
-368 -316 0
-369 -317 0
-370 -318 0
-371 -319 0
-372 -320 0
-373 -321 0
-374 -322 0
-375 -323 0
-376 -324 0
-377 -312 0
-378 -313 0
-380 -314 0
-382 -315 0
-384 -316 0
-386 -317 0
-388 -318 0
-390 -319 0
-392 -320 0
-394 -321 0
-396 -322 0
-398 -323 0
-400 -324 0
-379 -313 0
-381 -314 0
-383 -315 0
-385 -316 0
-387 -317 0
-389 -318 0
-391 -319 0
-393 -320 0
-395 -321 0
-397 -322 0
-399 -323 0
-401 -324 0
-338 -325 0
-339 -326 0
-340 -327 0
-341 -328 0
-342 -329 0
-343 -330 0
-344 -331 0
-345 -332 0
-346 -333 0
-347 -334 0
-348 -335 0
-349 -336 0
-350 -337 0
-351 -325 0
-352 -326 0
-353 -327 0
-354 -328 0
-355 -329 0
-356 -330 0
-357 -331 0
-358 -332 0
-359 -333 0
-360 -334 0
-361 -335 0
-362 -336 0
-363 -337 0
-364 -325 0
-365 -326 0
-366 -327 0
-367 -328 0
-368 -329 0
-369 -330 0
-370 -331 0
-371 -332 0
-372 -333 0
-373 -334 0
-374 -335 0
-375 -336 0
-376 -337 0
-377 -325 0
-378 -326 0
-380 -327 0
-382 -328 0
-384 -329 0
-386 -330 0
-388 -331 0
-390 -332 0
-392 -333 0
-394 -334 0
-396 -335 0
-398 -336 0
-400 -337 0
-379 -326 0
-381 -327 0
-383 -328 0
-385 -329 0
-387 -330 0
-389 -331 0
-391 -332 0
-393 -333 0
-395 -334 0
-397 -335 0
-399 -336 0
-401 -337 0
-351 -338 0
-352 -339 0
-353 -340 0
-354 -341 0
-355 -342 0
-356 -343 0
-357 -344 0
-358 -345 0
-359 -346 0
-360 -347 0
-361 -348 0
-362 -349 0
-363 -350 0
-364 -338 0
-365 -339 0
-366 -340 0
-367 -341 0
-368 -342 0
-369 -343 0
-370 -344 0
-371 -345 0
-372 -346 0
-373 -347 0
-374 -348 0
-375 -349 0
-376 -350 0
-377 -338 0
-378 -339 0
-380 -340 0
-382 -341 0
-384 -342 0
-386 -343 0
-388 -344 0
-390 -345 0
-392 -346 0
-394 -347 0
-396 -348 0
-398 -349 0
-400 -350 0
-379 -339 0
-381 -340 0
-383 -341 0
-385 -342 0
-387 -343 0
-389 -344 0
-391 -345 0
-393 -346 0
-395 -347 0
-397 -348 0
-399 -349 0
-401 -350 0
-364 -351 0
-365 -352 0
-366 -353 0
-367 -354 0
-368 -355 0
-369 -356 0
-370 -357 0
-371 -358 0
-372 -359 0
-373 -360 0
-374 -361 0
-375 -362 0
-376 -363 0
-377 -351 0
-378 -352 0
-380 -353 0
-382 -354 0
-384 -355 0
-386 -356 0
-388 -357 0
-390 -358 0
-392 -359 0
-394 -360 0
-396 -361 0
-398 -362 0
-400 -363 0
-379 -352 0
-381 -353 0
-383 -354 0
-385 -355 0
-387 -356 0
-389 -357 0
-391 -358 0
-393 -359 0
-395 -360 0
-397 -361 0
-399 -362 0
-401 -363 0
-377 -364 0
-378 -365 0
-380 -366 0
-382 -367 0
-384 -368 0
-386 -369 0
-388 -370 0
-390 -371 0
-392 -372 0
-394 -373 0
-396 -374 0
-398 -375 0
-400 -376 0
-379 -365 0
-381 -366 0
-383 -367 0
-385 -368 0
-387 -369 0
-389 -370 0
-391 -371 0
-393 -372 0
-395 -373 0
-397 -374 0
-399 -375 0
-401 -376 0
-379 -378 0
-381 -380 0
-383 -382 0
-385 -384 0
-387 -386 0
-389 -388 0
-391 -390 0
-393 -392 0
-395 -394 0
-397 -396 0
-399 -398 0
-401 -400 0
